NAME: ACTUAL_TOURS/amz2156
TYPE: TOUR
COMMENT: RouteID_e48ad2c7-e03e-4ff6-b9e4-cd957ae4e98c
DIMENSION: 154
TOUR_SECTION
44
114
141
102
78
77
61
93
59
53
40
67
48
11
112
116
45
144
95
46
90
60
3
75
9
70
79
149
109
10
122
65
153
7
154
21
152
115
121
108
22
139
130
143
58
128
104
39
132
129
127
31
125
103
49
134
87
151
4
35
145
33
81
124
99
85
57
8
56
14
27
20
66
137
73
36
146
101
69
135
13
138
19
91
25
119
5
131
72
82
12
111
118
42
6
64
83
113
32
2
62
15
80
133
88
140
100
142
123
107
105
54
23
16
117
47
84
24
92
52
41
147
1
28
120
18
76
98
34
30
55
150
71
63
86
26
74
96
110
43
51
136
38
89
126
29
148
50
68
94
37
106
17
97
-1
EOF
